Materials Studio Generated CAR File
  1.000000
 10.0000000000   0.0000000000   0.0000000000 
 -0.0000000008  10.0000000000   0.0000000000 
 -0.0000000008  -0.0000000008  10.0000000000 
C H 
5 8 
Selective dynamics
cartesian
 -3.5773187000    6.3795437250    4.8267732220 T T T
 -5.1160825070    6.4128953030    4.9076525900 T T T
 -5.9490867310    5.1141449090    4.8498468620 T T T
 -5.2743117500    3.7286269410    4.7776820170 T T T
 -3.7439677750    3.5929638540    4.8653791460 T T T
 -3.0284160700    5.3904199400    4.7042756760 T T T
 -2.9858806460    7.3525042620    4.8822600920 T T T
 -5.6495737720    7.4158575610    5.0027566000 T T T
 -7.0870820100    5.1804029120    4.8615785650 T T T
 -5.9202793950    2.7905753990    4.7289637060 T T T
 -3.2810394230    3.8490480790    3.8556273210 T T T
 -3.4720606470    2.5232452370    5.1504965650 T T T
 -3.3457388840    4.3102167630    5.6569212510 T T T
